c File: instances/38_0.50_3.col
c
c Description: Random graph of size 38 vertices and P(0.49999999999999994) of edges between any two vertices.
p col 38 703
e 1 2
e 1 5
e 1 7
e 1 8
e 1 9
e 1 10
e 1 11
e 1 12
e 1 13
e 1 14
e 1 15
e 1 16
e 1 20
e 1 21
e 1 25
e 1 26
e 1 30
e 1 32
e 1 33
e 1 35
e 1 37
e 2 3
e 2 4
e 2 5
e 2 7
e 2 10
e 2 13
e 2 15
e 2 17
e 2 18
e 2 22
e 2 23
e 2 25
e 2 26
e 2 29
e 2 30
e 2 31
e 2 32
e 2 33
e 2 34
e 2 35
e 2 36
e 2 37
e 3 4
e 3 5
e 3 7
e 3 8
e 3 9
e 3 10
e 3 13
e 3 15
e 3 16
e 3 26
e 3 31
e 3 32
e 3 33
e 3 36
e 3 37
e 4 8
e 4 9
e 4 10
e 4 11
e 4 14
e 4 18
e 4 20
e 4 24
e 4 25
e 4 26
e 4 27
e 4 31
e 4 32
e 4 36
e 4 37
e 4 38
e 5 7
e 5 9
e 5 11
e 5 15
e 5 17
e 5 21
e 5 23
e 5 24
e 5 25
e 5 26
e 5 34
e 5 35
e 5 38
e 6 10
e 6 11
e 6 12
e 6 13
e 6 14
e 6 15
e 6 18
e 6 20
e 6 21
e 6 22
e 6 24
e 6 25
e 6 26
e 6 27
e 6 30
e 6 31
e 6 32
e 6 37
e 7 9
e 7 10
e 7 11
e 7 12
e 7 16
e 7 18
e 7 19
e 7 20
e 7 21
e 7 24
e 7 25
e 7 28
e 7 30
e 7 35
e 8 11
e 8 13
e 8 21
e 8 22
e 8 24
e 8 26
e 8 28
e 8 29
e 8 32
e 8 33
e 8 34
e 8 35
e 8 36
e 8 38
e 9 12
e 9 13
e 9 14
e 9 20
e 9 23
e 9 26
e 9 32
e 9 33
e 9 34
e 9 36
e 9 37
e 9 38
e 10 11
e 10 13
e 10 15
e 10 16
e 10 17
e 10 18
e 10 20
e 10 22
e 10 24
e 10 27
e 10 28
e 10 29
e 10 30
e 10 32
e 10 34
e 10 35
e 10 38
e 11 12
e 11 13
e 11 14
e 11 15
e 11 16
e 11 17
e 11 20
e 11 21
e 11 22
e 11 26
e 11 27
e 11 30
e 11 33
e 11 35
e 11 38
e 12 13
e 12 16
e 12 17
e 12 18
e 12 22
e 12 23
e 12 29
e 12 30
e 12 33
e 12 34
e 12 35
e 12 36
e 12 38
e 13 14
e 13 15
e 13 16
e 13 18
e 13 20
e 13 21
e 13 24
e 13 25
e 13 26
e 13 27
e 13 29
e 13 32
e 13 34
e 13 36
e 14 16
e 14 17
e 14 20
e 14 21
e 14 22
e 14 24
e 14 25
e 14 27
e 14 30
e 14 31
e 14 32
e 14 34
e 14 35
e 15 16
e 15 17
e 15 18
e 15 19
e 15 22
e 15 24
e 15 26
e 15 30
e 15 32
e 15 33
e 15 38
e 16 18
e 16 20
e 16 22
e 16 23
e 16 25
e 16 27
e 16 29
e 16 31
e 16 32
e 16 33
e 16 34
e 16 35
e 16 36
e 16 38
e 17 18
e 17 19
e 17 21
e 17 22
e 17 23
e 17 24
e 17 26
e 17 28
e 17 29
e 17 31
e 17 36
e 17 38
e 18 22
e 18 23
e 18 26
e 18 27
e 18 28
e 18 31
e 18 33
e 18 37
e 19 22
e 19 25
e 19 26
e 19 29
e 19 30
e 19 32
e 19 36
e 19 37
e 20 22
e 20 23
e 20 24
e 20 25
e 20 26
e 20 27
e 20 28
e 20 38
e 21 25
e 21 29
e 21 30
e 21 31
e 21 34
e 21 36
e 21 37
e 21 38
e 22 23
e 22 24
e 22 29
e 22 33
e 22 36
e 22 38
e 23 24
e 23 25
e 23 26
e 23 30
e 23 31
e 23 32
e 23 34
e 23 35
e 24 25
e 24 27
e 24 30
e 24 31
e 24 32
e 24 33
e 25 26
e 25 30
e 25 32
e 25 33
e 25 34
e 26 27
e 26 28
e 26 31
e 26 34
e 26 37
e 27 28
e 27 35
e 27 38
e 28 32
e 28 34
e 28 36
e 29 33
e 29 34
e 29 36
e 29 37
e 29 38
e 30 33
e 30 34
e 30 38
e 31 33
e 31 35
e 31 36
e 32 33
e 32 34
e 32 35
e 32 36
e 32 37
e 33 34
e 33 37
e 34 35
e 34 36
e 34 37
e 35 36
e 35 37
e 35 38
e 36 38
e 37 38